LAMMPS (2 Aug 2023 - Update 2)
# 3d Lennard-Jones melt

variable	x index 1
variable	y index 1
variable	z index 1

units		lj
atom_style	atomic

lattice		fcc 0.8442
Lattice spacing in x,y,z = 1.6795962 1.6795962 1.6795962
region		box block 0 $x 0 $y 0 $z
region		box block 0 20 0 $y 0 $z
region		box block 0 20 0 20 0 $z
region		box block 0 20 0 20 0 10
create_box	1 box
Created orthogonal box = (0 0 0) to (33.591924 33.591924 16.795962)
  1 by 1 by 1 MPI processor grid
create_atoms	1 box
Created 16000 atoms
  using lattice units in orthogonal box = (0 0 0) to (33.591924 33.591924 16.795962)
  create_atoms CPU = 0.001 seconds
mass		1 1.0

velocity	all create 1.44 87287 loop geom

pair_style	lj/cut 2.5
pair_coeff	1 1 1.0 1.0 2.5

neighbor	0.3 bin
neigh_modify	delay 0 every 20 check no

fix		1 all nve

run		100
Generated 0 of 0 mixed pair_coeff terms from geometric mixing rule
Neighbor list info ...
  update: every = 20 steps, delay = 0 steps, check = no
  max neighbors/atom: 2000, page size: 100000
  master list distance cutoff = 2.8
  ghost atom cutoff = 2.8
  binsize = 1.4, bins = 24 24 12
  1 neighbor lists, perpetual/occasional/extra = 1 0 0
  (1) pair lj/cut, perpetual
      attributes: half, newton on
      pair build: half/bin/atomonly/newton
      stencil: half/bin/3d
      bin: standard
Per MPI rank memory allocation (min/avg/max) = 7.507 | 7.507 | 7.507 Mbytes
   Step          Temp          E_pair         E_mol          TotEng         Press     
         0   1.44          -6.7733681      0             -4.6135031     -5.0197452    
       100   0.75976941    -5.7619793      0             -4.6223964      0.19753581   
Loop time of 0.414116 on 1 procs for 100 steps with 16000 atoms

Performance: 104318.712 tau/day, 241.479 timesteps/s, 3.864 Matom-step/s
99.7% CPU use with 1 MPI tasks x no OpenMP threads

MPI task timing breakdown:
Section |  min time  |  avg time  |  max time  |%varavg| %total
---------------------------------------------------------------
Pair    | 0.33396    | 0.33396    | 0.33396    |   0.0 | 80.65
Neigh   | 0.068588   | 0.068588   | 0.068588   |   0.0 | 16.56
Comm    | 0.0042228  | 0.0042228  | 0.0042228  |   0.0 |  1.02
Output  | 2.9375e-05 | 2.9375e-05 | 2.9375e-05 |   0.0 |  0.01
Modify  | 0.0067434  | 0.0067434  | 0.0067434  |   0.0 |  1.63
Other   |            | 0.0005683  |            |       |  0.14

Nlocal:          16000 ave       16000 max       16000 min
Histogram: 1 0 0 0 0 0 0 0 0 0
Nghost:          13621 ave       13621 max       13621 min
Histogram: 1 0 0 0 0 0 0 0 0 0
Neighs:         601058 ave      601058 max      601058 min
Histogram: 1 0 0 0 0 0 0 0 0 0

Total # of neighbors = 601058
Ave neighs/atom = 37.566125
Neighbor list builds = 5
Dangerous builds not checked
Total wall time: 0:00:00
